%%% static parameters %%%
timespan = 1;
Fact = [2];
Distr1 = [5];
Distr2 = [10];
Clients_N = [120];
Demand_W = [15];
Lt0 = [4];
Lt1 = [4];
SS_ = [0.85];
DS_D = [5];
K = [200];
MA = [500];
%%% dynamic parameters %%%
lost_ratio_sales_ret_th = 0.21403545402256696;
lost_ratio_sales_ret_w = 85;
lost_ratio_sales_dis_th = 0.817136022079612;
lost_ratio_sales_dis_w = 9;
lost_ratio_sales_fac_th = 0.32472743279974503;
lost_ratio_sales_fac_w = 48;
stock_customer_MA_mean_relative_th = 0.33400698907521453;
stock_customer_MA_mean_relative_w = 62;
stock_distributor_MA_mean_relative_th = 0.21584533347710289;
stock_distributor_MA_mean_relative_w = 75;
stock_retailer_MA_mean_relative_th = 0.30128681390491685;
stock_retailer_MA_mean_relative_w = 99;
stock_factory_MA_mean_relative_th = 0.10649063649268298;
stock_factory_MA_mean_relative_w = 60;
